10010
10010
10087
10472
10472
10560
10560
10560
10791
10868
10868
10868
10945
10945
10945
10945
10945
10945
10945
10945
10945
10945
10945
10945
10945
10945
10945
10945
10945
10945
10945
10945
10945
10945
10945
10945
10945
10945
10945
10945
10945
10945
10945
10945
10945
10945
10945
10945
10945
10945
10945
10945
10945
10945
10945
10945
10945
10945
10945
10945
10945
10945
10945
10945
10945
10945
10945
10945
10945
10945
10945
10945
10945
10945
10945
10945
10945
10945
10945
10945
10945
10945
10945
10945
10945
10945
10945
10945
10945
10945
10945
10945
10945
10945
10945
10945
10945
10945
10945
